c *********************************
c * Circuit generated by BenCGen
c *
c * CarrySaveMultiplier_10
c *
c * Ports with 1 gate(s): 2
c * Ports with 2 gate(s): 541
c * Total gates: 543
c *********************************
p cnf 563 1807
1 42 0
-1 -42 0
1 -41 0
42 -41 0
-1 -42 41 0
1 -43 0
11 -43 0
-1 -11 43 0
2 -44 0
11 -44 0
-2 -11 44 0
3 -45 0
11 -45 0
-3 -11 45 0
4 -46 0
11 -46 0
-4 -11 46 0
5 -47 0
11 -47 0
-5 -11 47 0
6 -48 0
11 -48 0
-6 -11 48 0
7 -49 0
11 -49 0
-7 -11 49 0
8 -50 0
11 -50 0
-8 -11 50 0
9 -51 0
11 -51 0
-9 -11 51 0
10 -52 0
11 -52 0
-10 -11 52 0
1 -53 0
12 -53 0
-1 -12 53 0
2 -54 0
12 -54 0
-2 -12 54 0
3 -55 0
12 -55 0
-3 -12 55 0
4 -56 0
12 -56 0
-4 -12 56 0
5 -57 0
12 -57 0
-5 -12 57 0
6 -58 0
12 -58 0
-6 -12 58 0
7 -59 0
12 -59 0
-7 -12 59 0
8 -60 0
12 -60 0
-8 -12 60 0
9 -61 0
12 -61 0
-9 -12 61 0
10 -62 0
12 -62 0
-10 -12 62 0
1 -63 0
13 -63 0
-1 -13 63 0
2 -64 0
13 -64 0
-2 -13 64 0
3 -65 0
13 -65 0
-3 -13 65 0
4 -66 0
13 -66 0
-4 -13 66 0
5 -67 0
13 -67 0
-5 -13 67 0
6 -68 0
13 -68 0
-6 -13 68 0
7 -69 0
13 -69 0
-7 -13 69 0
8 -70 0
13 -70 0
-8 -13 70 0
9 -71 0
13 -71 0
-9 -13 71 0
10 -72 0
13 -72 0
-10 -13 72 0
1 -73 0
14 -73 0
-1 -14 73 0
2 -74 0
14 -74 0
-2 -14 74 0
3 -75 0
14 -75 0
-3 -14 75 0
4 -76 0
14 -76 0
-4 -14 76 0
5 -77 0
14 -77 0
-5 -14 77 0
6 -78 0
14 -78 0
-6 -14 78 0
7 -79 0
14 -79 0
-7 -14 79 0
8 -80 0
14 -80 0
-8 -14 80 0
9 -81 0
14 -81 0
-9 -14 81 0
10 -82 0
14 -82 0
-10 -14 82 0
1 -83 0
15 -83 0
-1 -15 83 0
2 -84 0
15 -84 0
-2 -15 84 0
3 -85 0
15 -85 0
-3 -15 85 0
4 -86 0
15 -86 0
-4 -15 86 0
5 -87 0
15 -87 0
-5 -15 87 0
6 -88 0
15 -88 0
-6 -15 88 0
7 -89 0
15 -89 0
-7 -15 89 0
8 -90 0
15 -90 0
-8 -15 90 0
9 -91 0
15 -91 0
-9 -15 91 0
10 -92 0
15 -92 0
-10 -15 92 0
1 -93 0
16 -93 0
-1 -16 93 0
2 -94 0
16 -94 0
-2 -16 94 0
3 -95 0
16 -95 0
-3 -16 95 0
4 -96 0
16 -96 0
-4 -16 96 0
5 -97 0
16 -97 0
-5 -16 97 0
6 -98 0
16 -98 0
-6 -16 98 0
7 -99 0
16 -99 0
-7 -16 99 0
8 -100 0
16 -100 0
-8 -16 100 0
9 -101 0
16 -101 0
-9 -16 101 0
10 -102 0
16 -102 0
-10 -16 102 0
1 -103 0
17 -103 0
-1 -17 103 0
2 -104 0
17 -104 0
-2 -17 104 0
3 -105 0
17 -105 0
-3 -17 105 0
4 -106 0
17 -106 0
-4 -17 106 0
5 -107 0
17 -107 0
-5 -17 107 0
6 -108 0
17 -108 0
-6 -17 108 0
7 -109 0
17 -109 0
-7 -17 109 0
8 -110 0
17 -110 0
-8 -17 110 0
9 -111 0
17 -111 0
-9 -17 111 0
10 -112 0
17 -112 0
-10 -17 112 0
1 -113 0
18 -113 0
-1 -18 113 0
2 -114 0
18 -114 0
-2 -18 114 0
3 -115 0
18 -115 0
-3 -18 115 0
4 -116 0
18 -116 0
-4 -18 116 0
5 -117 0
18 -117 0
-5 -18 117 0
6 -118 0
18 -118 0
-6 -18 118 0
7 -119 0
18 -119 0
-7 -18 119 0
8 -120 0
18 -120 0
-8 -18 120 0
9 -121 0
18 -121 0
-9 -18 121 0
10 -122 0
18 -122 0
-10 -18 122 0
1 -123 0
19 -123 0
-1 -19 123 0
2 -124 0
19 -124 0
-2 -19 124 0
3 -125 0
19 -125 0
-3 -19 125 0
4 -126 0
19 -126 0
-4 -19 126 0
5 -127 0
19 -127 0
-5 -19 127 0
6 -128 0
19 -128 0
-6 -19 128 0
7 -129 0
19 -129 0
-7 -19 129 0
8 -130 0
19 -130 0
-8 -19 130 0
9 -131 0
19 -131 0
-9 -19 131 0
10 -132 0
19 -132 0
-10 -19 132 0
1 -133 0
20 -133 0
-1 -20 133 0
2 -134 0
20 -134 0
-2 -20 134 0
3 -135 0
20 -135 0
-3 -20 135 0
4 -136 0
20 -136 0
-4 -20 136 0
5 -137 0
20 -137 0
-5 -20 137 0
6 -138 0
20 -138 0
-6 -20 138 0
7 -139 0
20 -139 0
-7 -20 139 0
8 -140 0
20 -140 0
-8 -20 140 0
9 -141 0
20 -141 0
-9 -20 141 0
10 -142 0
20 -142 0
-10 -20 142 0
43 -21 0
-43 21 0
44 53 -22 0
-44 53 22 0
44 -53 22 0
-44 -53 -22 0
44 -152 0
53 -152 0
-44 -53 152 0
45 54 -143 0
-45 54 143 0
45 -54 143 0
-45 -54 -143 0
45 -153 0
54 -153 0
-45 -54 153 0
46 55 -144 0
-46 55 144 0
46 -55 144 0
-46 -55 -144 0
46 -154 0
55 -154 0
-46 -55 154 0
47 56 -145 0
-47 56 145 0
47 -56 145 0
-47 -56 -145 0
47 -155 0
56 -155 0
-47 -56 155 0
48 57 -146 0
-48 57 146 0
48 -57 146 0
-48 -57 -146 0
48 -156 0
57 -156 0
-48 -57 156 0
49 58 -147 0
-49 58 147 0
49 -58 147 0
-49 -58 -147 0
49 -157 0
58 -157 0
-49 -58 157 0
50 59 -148 0
-50 59 148 0
50 -59 148 0
-50 -59 -148 0
50 -158 0
59 -158 0
-50 -59 158 0
51 60 -149 0
-51 60 149 0
51 -60 149 0
-51 -60 -149 0
51 -159 0
60 -159 0
-51 -60 159 0
52 61 -150 0
-52 61 150 0
52 -61 150 0
-52 -61 -150 0
52 -160 0
61 -160 0
-52 -61 160 0
41 62 -151 0
-41 62 151 0
41 -62 151 0
-41 -62 -151 0
41 -161 0
62 -161 0
-41 -62 161 0
72 161 -170 0
-72 161 170 0
72 -161 170 0
-72 -161 -170 0
72 -207 0
161 -207 0
-72 -161 207 0
82 207 -216 0
-82 207 216 0
82 -207 216 0
-82 -207 -216 0
82 -253 0
207 -253 0
-82 -207 253 0
92 253 -262 0
-92 253 262 0
92 -253 262 0
-92 -253 -262 0
92 -299 0
253 -299 0
-92 -253 299 0
102 299 -308 0
-102 299 308 0
102 -299 308 0
-102 -299 -308 0
102 -345 0
299 -345 0
-102 -299 345 0
112 345 -354 0
-112 345 354 0
112 -345 354 0
-112 -345 -354 0
112 -391 0
345 -391 0
-112 -345 391 0
122 391 -400 0
-122 391 400 0
122 -391 400 0
-122 -391 -400 0
122 -437 0
391 -437 0
-122 -391 437 0
132 437 -446 0
-132 437 446 0
132 -437 446 0
-132 -437 -446 0
132 -483 0
437 -483 0
-132 -437 483 0
142 483 -492 0
-142 483 492 0
142 -483 492 0
-142 -483 -492 0
142 -529 0
483 -529 0
-142 -483 529 0
493 484 -31 0
-493 484 31 0
493 -484 31 0
-493 -484 -31 0
493 -530 0
484 -530 0
-493 -484 530 0
529 559 -40 0
-529 559 40 0
529 -559 40 0
-529 -559 -40 0
529 -563 0
559 -563 0
-529 -559 563 0
63 143 -172 0
-63 143 172 0
63 -143 172 0
-63 -143 -172 0
172 152 -23 0
-172 152 23 0
172 -152 23 0
-172 -152 -23 0
152 -173 0
172 -173 0
-152 -172 173 0
143 -174 0
63 -174 0
-143 -63 174 0
-173 171 0
-174 171 0
173 174 -171 0
64 144 -176 0
-64 144 176 0
64 -144 176 0
-64 -144 -176 0
176 153 -162 0
-176 153 162 0
176 -153 162 0
-176 -153 -162 0
153 -177 0
176 -177 0
-153 -176 177 0
144 -178 0
64 -178 0
-144 -64 178 0
-177 175 0
-178 175 0
177 178 -175 0
65 145 -180 0
-65 145 180 0
65 -145 180 0
-65 -145 -180 0
180 154 -163 0
-180 154 163 0
180 -154 163 0
-180 -154 -163 0
154 -181 0
180 -181 0
-154 -180 181 0
145 -182 0
65 -182 0
-145 -65 182 0
-181 179 0
-182 179 0
181 182 -179 0
66 146 -184 0
-66 146 184 0
66 -146 184 0
-66 -146 -184 0
184 155 -164 0
-184 155 164 0
184 -155 164 0
-184 -155 -164 0
155 -185 0
184 -185 0
-155 -184 185 0
146 -186 0
66 -186 0
-146 -66 186 0
-185 183 0
-186 183 0
185 186 -183 0
67 147 -188 0
-67 147 188 0
67 -147 188 0
-67 -147 -188 0
188 156 -165 0
-188 156 165 0
188 -156 165 0
-188 -156 -165 0
156 -189 0
188 -189 0
-156 -188 189 0
147 -190 0
67 -190 0
-147 -67 190 0
-189 187 0
-190 187 0
189 190 -187 0
68 148 -192 0
-68 148 192 0
68 -148 192 0
-68 -148 -192 0
192 157 -166 0
-192 157 166 0
192 -157 166 0
-192 -157 -166 0
157 -193 0
192 -193 0
-157 -192 193 0
148 -194 0
68 -194 0
-148 -68 194 0
-193 191 0
-194 191 0
193 194 -191 0
69 149 -196 0
-69 149 196 0
69 -149 196 0
-69 -149 -196 0
196 158 -167 0
-196 158 167 0
196 -158 167 0
-196 -158 -167 0
158 -197 0
196 -197 0
-158 -196 197 0
149 -198 0
69 -198 0
-149 -69 198 0
-197 195 0
-198 195 0
197 198 -195 0
70 150 -200 0
-70 150 200 0
70 -150 200 0
-70 -150 -200 0
200 159 -168 0
-200 159 168 0
200 -159 168 0
-200 -159 -168 0
159 -201 0
200 -201 0
-159 -200 201 0
150 -202 0
70 -202 0
-150 -70 202 0
-201 199 0
-202 199 0
201 202 -199 0
71 151 -204 0
-71 151 204 0
71 -151 204 0
-71 -151 -204 0
204 160 -169 0
-204 160 169 0
204 -160 169 0
-204 -160 -169 0
160 -205 0
204 -205 0
-160 -204 205 0
151 -206 0
71 -206 0
-151 -71 206 0
-205 203 0
-206 203 0
205 206 -203 0
73 162 -218 0
-73 162 218 0
73 -162 218 0
-73 -162 -218 0
218 171 -24 0
-218 171 24 0
218 -171 24 0
-218 -171 -24 0
171 -219 0
218 -219 0
-171 -218 219 0
162 -220 0
73 -220 0
-162 -73 220 0
-219 217 0
-220 217 0
219 220 -217 0
74 163 -222 0
-74 163 222 0
74 -163 222 0
-74 -163 -222 0
222 175 -208 0
-222 175 208 0
222 -175 208 0
-222 -175 -208 0
175 -223 0
222 -223 0
-175 -222 223 0
163 -224 0
74 -224 0
-163 -74 224 0
-223 221 0
-224 221 0
223 224 -221 0
75 164 -226 0
-75 164 226 0
75 -164 226 0
-75 -164 -226 0
226 179 -209 0
-226 179 209 0
226 -179 209 0
-226 -179 -209 0
179 -227 0
226 -227 0
-179 -226 227 0
164 -228 0
75 -228 0
-164 -75 228 0
-227 225 0
-228 225 0
227 228 -225 0
76 165 -230 0
-76 165 230 0
76 -165 230 0
-76 -165 -230 0
230 183 -210 0
-230 183 210 0
230 -183 210 0
-230 -183 -210 0
183 -231 0
230 -231 0
-183 -230 231 0
165 -232 0
76 -232 0
-165 -76 232 0
-231 229 0
-232 229 0
231 232 -229 0
77 166 -234 0
-77 166 234 0
77 -166 234 0
-77 -166 -234 0
234 187 -211 0
-234 187 211 0
234 -187 211 0
-234 -187 -211 0
187 -235 0
234 -235 0
-187 -234 235 0
166 -236 0
77 -236 0
-166 -77 236 0
-235 233 0
-236 233 0
235 236 -233 0
78 167 -238 0
-78 167 238 0
78 -167 238 0
-78 -167 -238 0
238 191 -212 0
-238 191 212 0
238 -191 212 0
-238 -191 -212 0
191 -239 0
238 -239 0
-191 -238 239 0
167 -240 0
78 -240 0
-167 -78 240 0
-239 237 0
-240 237 0
239 240 -237 0
79 168 -242 0
-79 168 242 0
79 -168 242 0
-79 -168 -242 0
242 195 -213 0
-242 195 213 0
242 -195 213 0
-242 -195 -213 0
195 -243 0
242 -243 0
-195 -242 243 0
168 -244 0
79 -244 0
-168 -79 244 0
-243 241 0
-244 241 0
243 244 -241 0
80 169 -246 0
-80 169 246 0
80 -169 246 0
-80 -169 -246 0
246 199 -214 0
-246 199 214 0
246 -199 214 0
-246 -199 -214 0
199 -247 0
246 -247 0
-199 -246 247 0
169 -248 0
80 -248 0
-169 -80 248 0
-247 245 0
-248 245 0
247 248 -245 0
81 170 -250 0
-81 170 250 0
81 -170 250 0
-81 -170 -250 0
250 203 -215 0
-250 203 215 0
250 -203 215 0
-250 -203 -215 0
203 -251 0
250 -251 0
-203 -250 251 0
170 -252 0
81 -252 0
-170 -81 252 0
-251 249 0
-252 249 0
251 252 -249 0
83 208 -264 0
-83 208 264 0
83 -208 264 0
-83 -208 -264 0
264 217 -25 0
-264 217 25 0
264 -217 25 0
-264 -217 -25 0
217 -265 0
264 -265 0
-217 -264 265 0
208 -266 0
83 -266 0
-208 -83 266 0
-265 263 0
-266 263 0
265 266 -263 0
84 209 -268 0
-84 209 268 0
84 -209 268 0
-84 -209 -268 0
268 221 -254 0
-268 221 254 0
268 -221 254 0
-268 -221 -254 0
221 -269 0
268 -269 0
-221 -268 269 0
209 -270 0
84 -270 0
-209 -84 270 0
-269 267 0
-270 267 0
269 270 -267 0
85 210 -272 0
-85 210 272 0
85 -210 272 0
-85 -210 -272 0
272 225 -255 0
-272 225 255 0
272 -225 255 0
-272 -225 -255 0
225 -273 0
272 -273 0
-225 -272 273 0
210 -274 0
85 -274 0
-210 -85 274 0
-273 271 0
-274 271 0
273 274 -271 0
86 211 -276 0
-86 211 276 0
86 -211 276 0
-86 -211 -276 0
276 229 -256 0
-276 229 256 0
276 -229 256 0
-276 -229 -256 0
229 -277 0
276 -277 0
-229 -276 277 0
211 -278 0
86 -278 0
-211 -86 278 0
-277 275 0
-278 275 0
277 278 -275 0
87 212 -280 0
-87 212 280 0
87 -212 280 0
-87 -212 -280 0
280 233 -257 0
-280 233 257 0
280 -233 257 0
-280 -233 -257 0
233 -281 0
280 -281 0
-233 -280 281 0
212 -282 0
87 -282 0
-212 -87 282 0
-281 279 0
-282 279 0
281 282 -279 0
88 213 -284 0
-88 213 284 0
88 -213 284 0
-88 -213 -284 0
284 237 -258 0
-284 237 258 0
284 -237 258 0
-284 -237 -258 0
237 -285 0
284 -285 0
-237 -284 285 0
213 -286 0
88 -286 0
-213 -88 286 0
-285 283 0
-286 283 0
285 286 -283 0
89 214 -288 0
-89 214 288 0
89 -214 288 0
-89 -214 -288 0
288 241 -259 0
-288 241 259 0
288 -241 259 0
-288 -241 -259 0
241 -289 0
288 -289 0
-241 -288 289 0
214 -290 0
89 -290 0
-214 -89 290 0
-289 287 0
-290 287 0
289 290 -287 0
90 215 -292 0
-90 215 292 0
90 -215 292 0
-90 -215 -292 0
292 245 -260 0
-292 245 260 0
292 -245 260 0
-292 -245 -260 0
245 -293 0
292 -293 0
-245 -292 293 0
215 -294 0
90 -294 0
-215 -90 294 0
-293 291 0
-294 291 0
293 294 -291 0
91 216 -296 0
-91 216 296 0
91 -216 296 0
-91 -216 -296 0
296 249 -261 0
-296 249 261 0
296 -249 261 0
-296 -249 -261 0
249 -297 0
296 -297 0
-249 -296 297 0
216 -298 0
91 -298 0
-216 -91 298 0
-297 295 0
-298 295 0
297 298 -295 0
93 254 -310 0
-93 254 310 0
93 -254 310 0
-93 -254 -310 0
310 263 -26 0
-310 263 26 0
310 -263 26 0
-310 -263 -26 0
263 -311 0
310 -311 0
-263 -310 311 0
254 -312 0
93 -312 0
-254 -93 312 0
-311 309 0
-312 309 0
311 312 -309 0
94 255 -314 0
-94 255 314 0
94 -255 314 0
-94 -255 -314 0
314 267 -300 0
-314 267 300 0
314 -267 300 0
-314 -267 -300 0
267 -315 0
314 -315 0
-267 -314 315 0
255 -316 0
94 -316 0
-255 -94 316 0
-315 313 0
-316 313 0
315 316 -313 0
95 256 -318 0
-95 256 318 0
95 -256 318 0
-95 -256 -318 0
318 271 -301 0
-318 271 301 0
318 -271 301 0
-318 -271 -301 0
271 -319 0
318 -319 0
-271 -318 319 0
256 -320 0
95 -320 0
-256 -95 320 0
-319 317 0
-320 317 0
319 320 -317 0
96 257 -322 0
-96 257 322 0
96 -257 322 0
-96 -257 -322 0
322 275 -302 0
-322 275 302 0
322 -275 302 0
-322 -275 -302 0
275 -323 0
322 -323 0
-275 -322 323 0
257 -324 0
96 -324 0
-257 -96 324 0
-323 321 0
-324 321 0
323 324 -321 0
97 258 -326 0
-97 258 326 0
97 -258 326 0
-97 -258 -326 0
326 279 -303 0
-326 279 303 0
326 -279 303 0
-326 -279 -303 0
279 -327 0
326 -327 0
-279 -326 327 0
258 -328 0
97 -328 0
-258 -97 328 0
-327 325 0
-328 325 0
327 328 -325 0
98 259 -330 0
-98 259 330 0
98 -259 330 0
-98 -259 -330 0
330 283 -304 0
-330 283 304 0
330 -283 304 0
-330 -283 -304 0
283 -331 0
330 -331 0
-283 -330 331 0
259 -332 0
98 -332 0
-259 -98 332 0
-331 329 0
-332 329 0
331 332 -329 0
99 260 -334 0
-99 260 334 0
99 -260 334 0
-99 -260 -334 0
334 287 -305 0
-334 287 305 0
334 -287 305 0
-334 -287 -305 0
287 -335 0
334 -335 0
-287 -334 335 0
260 -336 0
99 -336 0
-260 -99 336 0
-335 333 0
-336 333 0
335 336 -333 0
100 261 -338 0
-100 261 338 0
100 -261 338 0
-100 -261 -338 0
338 291 -306 0
-338 291 306 0
338 -291 306 0
-338 -291 -306 0
291 -339 0
338 -339 0
-291 -338 339 0
261 -340 0
100 -340 0
-261 -100 340 0
-339 337 0
-340 337 0
339 340 -337 0
101 262 -342 0
-101 262 342 0
101 -262 342 0
-101 -262 -342 0
342 295 -307 0
-342 295 307 0
342 -295 307 0
-342 -295 -307 0
295 -343 0
342 -343 0
-295 -342 343 0
262 -344 0
101 -344 0
-262 -101 344 0
-343 341 0
-344 341 0
343 344 -341 0
103 300 -356 0
-103 300 356 0
103 -300 356 0
-103 -300 -356 0
356 309 -27 0
-356 309 27 0
356 -309 27 0
-356 -309 -27 0
309 -357 0
356 -357 0
-309 -356 357 0
300 -358 0
103 -358 0
-300 -103 358 0
-357 355 0
-358 355 0
357 358 -355 0
104 301 -360 0
-104 301 360 0
104 -301 360 0
-104 -301 -360 0
360 313 -346 0
-360 313 346 0
360 -313 346 0
-360 -313 -346 0
313 -361 0
360 -361 0
-313 -360 361 0
301 -362 0
104 -362 0
-301 -104 362 0
-361 359 0
-362 359 0
361 362 -359 0
105 302 -364 0
-105 302 364 0
105 -302 364 0
-105 -302 -364 0
364 317 -347 0
-364 317 347 0
364 -317 347 0
-364 -317 -347 0
317 -365 0
364 -365 0
-317 -364 365 0
302 -366 0
105 -366 0
-302 -105 366 0
-365 363 0
-366 363 0
365 366 -363 0
106 303 -368 0
-106 303 368 0
106 -303 368 0
-106 -303 -368 0
368 321 -348 0
-368 321 348 0
368 -321 348 0
-368 -321 -348 0
321 -369 0
368 -369 0
-321 -368 369 0
303 -370 0
106 -370 0
-303 -106 370 0
-369 367 0
-370 367 0
369 370 -367 0
107 304 -372 0
-107 304 372 0
107 -304 372 0
-107 -304 -372 0
372 325 -349 0
-372 325 349 0
372 -325 349 0
-372 -325 -349 0
325 -373 0
372 -373 0
-325 -372 373 0
304 -374 0
107 -374 0
-304 -107 374 0
-373 371 0
-374 371 0
373 374 -371 0
108 305 -376 0
-108 305 376 0
108 -305 376 0
-108 -305 -376 0
376 329 -350 0
-376 329 350 0
376 -329 350 0
-376 -329 -350 0
329 -377 0
376 -377 0
-329 -376 377 0
305 -378 0
108 -378 0
-305 -108 378 0
-377 375 0
-378 375 0
377 378 -375 0
109 306 -380 0
-109 306 380 0
109 -306 380 0
-109 -306 -380 0
380 333 -351 0
-380 333 351 0
380 -333 351 0
-380 -333 -351 0
333 -381 0
380 -381 0
-333 -380 381 0
306 -382 0
109 -382 0
-306 -109 382 0
-381 379 0
-382 379 0
381 382 -379 0
110 307 -384 0
-110 307 384 0
110 -307 384 0
-110 -307 -384 0
384 337 -352 0
-384 337 352 0
384 -337 352 0
-384 -337 -352 0
337 -385 0
384 -385 0
-337 -384 385 0
307 -386 0
110 -386 0
-307 -110 386 0
-385 383 0
-386 383 0
385 386 -383 0
111 308 -388 0
-111 308 388 0
111 -308 388 0
-111 -308 -388 0
388 341 -353 0
-388 341 353 0
388 -341 353 0
-388 -341 -353 0
341 -389 0
388 -389 0
-341 -388 389 0
308 -390 0
111 -390 0
-308 -111 390 0
-389 387 0
-390 387 0
389 390 -387 0
113 346 -402 0
-113 346 402 0
113 -346 402 0
-113 -346 -402 0
402 355 -28 0
-402 355 28 0
402 -355 28 0
-402 -355 -28 0
355 -403 0
402 -403 0
-355 -402 403 0
346 -404 0
113 -404 0
-346 -113 404 0
-403 401 0
-404 401 0
403 404 -401 0
114 347 -406 0
-114 347 406 0
114 -347 406 0
-114 -347 -406 0
406 359 -392 0
-406 359 392 0
406 -359 392 0
-406 -359 -392 0
359 -407 0
406 -407 0
-359 -406 407 0
347 -408 0
114 -408 0
-347 -114 408 0
-407 405 0
-408 405 0
407 408 -405 0
115 348 -410 0
-115 348 410 0
115 -348 410 0
-115 -348 -410 0
410 363 -393 0
-410 363 393 0
410 -363 393 0
-410 -363 -393 0
363 -411 0
410 -411 0
-363 -410 411 0
348 -412 0
115 -412 0
-348 -115 412 0
-411 409 0
-412 409 0
411 412 -409 0
116 349 -414 0
-116 349 414 0
116 -349 414 0
-116 -349 -414 0
414 367 -394 0
-414 367 394 0
414 -367 394 0
-414 -367 -394 0
367 -415 0
414 -415 0
-367 -414 415 0
349 -416 0
116 -416 0
-349 -116 416 0
-415 413 0
-416 413 0
415 416 -413 0
117 350 -418 0
-117 350 418 0
117 -350 418 0
-117 -350 -418 0
418 371 -395 0
-418 371 395 0
418 -371 395 0
-418 -371 -395 0
371 -419 0
418 -419 0
-371 -418 419 0
350 -420 0
117 -420 0
-350 -117 420 0
-419 417 0
-420 417 0
419 420 -417 0
118 351 -422 0
-118 351 422 0
118 -351 422 0
-118 -351 -422 0
422 375 -396 0
-422 375 396 0
422 -375 396 0
-422 -375 -396 0
375 -423 0
422 -423 0
-375 -422 423 0
351 -424 0
118 -424 0
-351 -118 424 0
-423 421 0
-424 421 0
423 424 -421 0
119 352 -426 0
-119 352 426 0
119 -352 426 0
-119 -352 -426 0
426 379 -397 0
-426 379 397 0
426 -379 397 0
-426 -379 -397 0
379 -427 0
426 -427 0
-379 -426 427 0
352 -428 0
119 -428 0
-352 -119 428 0
-427 425 0
-428 425 0
427 428 -425 0
120 353 -430 0
-120 353 430 0
120 -353 430 0
-120 -353 -430 0
430 383 -398 0
-430 383 398 0
430 -383 398 0
-430 -383 -398 0
383 -431 0
430 -431 0
-383 -430 431 0
353 -432 0
120 -432 0
-353 -120 432 0
-431 429 0
-432 429 0
431 432 -429 0
121 354 -434 0
-121 354 434 0
121 -354 434 0
-121 -354 -434 0
434 387 -399 0
-434 387 399 0
434 -387 399 0
-434 -387 -399 0
387 -435 0
434 -435 0
-387 -434 435 0
354 -436 0
121 -436 0
-354 -121 436 0
-435 433 0
-436 433 0
435 436 -433 0
123 392 -448 0
-123 392 448 0
123 -392 448 0
-123 -392 -448 0
448 401 -29 0
-448 401 29 0
448 -401 29 0
-448 -401 -29 0
401 -449 0
448 -449 0
-401 -448 449 0
392 -450 0
123 -450 0
-392 -123 450 0
-449 447 0
-450 447 0
449 450 -447 0
124 393 -452 0
-124 393 452 0
124 -393 452 0
-124 -393 -452 0
452 405 -438 0
-452 405 438 0
452 -405 438 0
-452 -405 -438 0
405 -453 0
452 -453 0
-405 -452 453 0
393 -454 0
124 -454 0
-393 -124 454 0
-453 451 0
-454 451 0
453 454 -451 0
125 394 -456 0
-125 394 456 0
125 -394 456 0
-125 -394 -456 0
456 409 -439 0
-456 409 439 0
456 -409 439 0
-456 -409 -439 0
409 -457 0
456 -457 0
-409 -456 457 0
394 -458 0
125 -458 0
-394 -125 458 0
-457 455 0
-458 455 0
457 458 -455 0
126 395 -460 0
-126 395 460 0
126 -395 460 0
-126 -395 -460 0
460 413 -440 0
-460 413 440 0
460 -413 440 0
-460 -413 -440 0
413 -461 0
460 -461 0
-413 -460 461 0
395 -462 0
126 -462 0
-395 -126 462 0
-461 459 0
-462 459 0
461 462 -459 0
127 396 -464 0
-127 396 464 0
127 -396 464 0
-127 -396 -464 0
464 417 -441 0
-464 417 441 0
464 -417 441 0
-464 -417 -441 0
417 -465 0
464 -465 0
-417 -464 465 0
396 -466 0
127 -466 0
-396 -127 466 0
-465 463 0
-466 463 0
465 466 -463 0
128 397 -468 0
-128 397 468 0
128 -397 468 0
-128 -397 -468 0
468 421 -442 0
-468 421 442 0
468 -421 442 0
-468 -421 -442 0
421 -469 0
468 -469 0
-421 -468 469 0
397 -470 0
128 -470 0
-397 -128 470 0
-469 467 0
-470 467 0
469 470 -467 0
129 398 -472 0
-129 398 472 0
129 -398 472 0
-129 -398 -472 0
472 425 -443 0
-472 425 443 0
472 -425 443 0
-472 -425 -443 0
425 -473 0
472 -473 0
-425 -472 473 0
398 -474 0
129 -474 0
-398 -129 474 0
-473 471 0
-474 471 0
473 474 -471 0
130 399 -476 0
-130 399 476 0
130 -399 476 0
-130 -399 -476 0
476 429 -444 0
-476 429 444 0
476 -429 444 0
-476 -429 -444 0
429 -477 0
476 -477 0
-429 -476 477 0
399 -478 0
130 -478 0
-399 -130 478 0
-477 475 0
-478 475 0
477 478 -475 0
131 400 -480 0
-131 400 480 0
131 -400 480 0
-131 -400 -480 0
480 433 -445 0
-480 433 445 0
480 -433 445 0
-480 -433 -445 0
433 -481 0
480 -481 0
-433 -480 481 0
400 -482 0
131 -482 0
-400 -131 482 0
-481 479 0
-482 479 0
481 482 -479 0
133 438 -494 0
-133 438 494 0
133 -438 494 0
-133 -438 -494 0
494 447 -30 0
-494 447 30 0
494 -447 30 0
-494 -447 -30 0
447 -495 0
494 -495 0
-447 -494 495 0
438 -496 0
133 -496 0
-438 -133 496 0
-495 493 0
-496 493 0
495 496 -493 0
134 439 -498 0
-134 439 498 0
134 -439 498 0
-134 -439 -498 0
498 451 -484 0
-498 451 484 0
498 -451 484 0
-498 -451 -484 0
451 -499 0
498 -499 0
-451 -498 499 0
439 -500 0
134 -500 0
-439 -134 500 0
-499 497 0
-500 497 0
499 500 -497 0
135 440 -502 0
-135 440 502 0
135 -440 502 0
-135 -440 -502 0
502 455 -485 0
-502 455 485 0
502 -455 485 0
-502 -455 -485 0
455 -503 0
502 -503 0
-455 -502 503 0
440 -504 0
135 -504 0
-440 -135 504 0
-503 501 0
-504 501 0
503 504 -501 0
136 441 -506 0
-136 441 506 0
136 -441 506 0
-136 -441 -506 0
506 459 -486 0
-506 459 486 0
506 -459 486 0
-506 -459 -486 0
459 -507 0
506 -507 0
-459 -506 507 0
441 -508 0
136 -508 0
-441 -136 508 0
-507 505 0
-508 505 0
507 508 -505 0
137 442 -510 0
-137 442 510 0
137 -442 510 0
-137 -442 -510 0
510 463 -487 0
-510 463 487 0
510 -463 487 0
-510 -463 -487 0
463 -511 0
510 -511 0
-463 -510 511 0
442 -512 0
137 -512 0
-442 -137 512 0
-511 509 0
-512 509 0
511 512 -509 0
138 443 -514 0
-138 443 514 0
138 -443 514 0
-138 -443 -514 0
514 467 -488 0
-514 467 488 0
514 -467 488 0
-514 -467 -488 0
467 -515 0
514 -515 0
-467 -514 515 0
443 -516 0
138 -516 0
-443 -138 516 0
-515 513 0
-516 513 0
515 516 -513 0
139 444 -518 0
-139 444 518 0
139 -444 518 0
-139 -444 -518 0
518 471 -489 0
-518 471 489 0
518 -471 489 0
-518 -471 -489 0
471 -519 0
518 -519 0
-471 -518 519 0
444 -520 0
139 -520 0
-444 -139 520 0
-519 517 0
-520 517 0
519 520 -517 0
140 445 -522 0
-140 445 522 0
140 -445 522 0
-140 -445 -522 0
522 475 -490 0
-522 475 490 0
522 -475 490 0
-522 -475 -490 0
475 -523 0
522 -523 0
-475 -522 523 0
445 -524 0
140 -524 0
-445 -140 524 0
-523 521 0
-524 521 0
523 524 -521 0
141 446 -526 0
-141 446 526 0
141 -446 526 0
-141 -446 -526 0
526 479 -491 0
-526 479 491 0
526 -479 491 0
-526 -479 -491 0
479 -527 0
526 -527 0
-479 -526 527 0
446 -528 0
141 -528 0
-446 -141 528 0
-527 525 0
-528 525 0
527 528 -525 0
497 485 -532 0
-497 485 532 0
497 -485 532 0
-497 -485 -532 0
532 530 -32 0
-532 530 32 0
532 -530 32 0
-532 -530 -32 0
530 -533 0
532 -533 0
-530 -532 533 0
485 -534 0
497 -534 0
-485 -497 534 0
-533 531 0
-534 531 0
533 534 -531 0
501 486 -536 0
-501 486 536 0
501 -486 536 0
-501 -486 -536 0
536 531 -33 0
-536 531 33 0
536 -531 33 0
-536 -531 -33 0
531 -537 0
536 -537 0
-531 -536 537 0
486 -538 0
501 -538 0
-486 -501 538 0
-537 535 0
-538 535 0
537 538 -535 0
505 487 -540 0
-505 487 540 0
505 -487 540 0
-505 -487 -540 0
540 535 -34 0
-540 535 34 0
540 -535 34 0
-540 -535 -34 0
535 -541 0
540 -541 0
-535 -540 541 0
487 -542 0
505 -542 0
-487 -505 542 0
-541 539 0
-542 539 0
541 542 -539 0
509 488 -544 0
-509 488 544 0
509 -488 544 0
-509 -488 -544 0
544 539 -35 0
-544 539 35 0
544 -539 35 0
-544 -539 -35 0
539 -545 0
544 -545 0
-539 -544 545 0
488 -546 0
509 -546 0
-488 -509 546 0
-545 543 0
-546 543 0
545 546 -543 0
513 489 -548 0
-513 489 548 0
513 -489 548 0
-513 -489 -548 0
548 543 -36 0
-548 543 36 0
548 -543 36 0
-548 -543 -36 0
543 -549 0
548 -549 0
-543 -548 549 0
489 -550 0
513 -550 0
-489 -513 550 0
-549 547 0
-550 547 0
549 550 -547 0
517 490 -552 0
-517 490 552 0
517 -490 552 0
-517 -490 -552 0
552 547 -37 0
-552 547 37 0
552 -547 37 0
-552 -547 -37 0
547 -553 0
552 -553 0
-547 -552 553 0
490 -554 0
517 -554 0
-490 -517 554 0
-553 551 0
-554 551 0
553 554 -551 0
521 491 -556 0
-521 491 556 0
521 -491 556 0
-521 -491 -556 0
556 551 -38 0
-556 551 38 0
556 -551 38 0
-556 -551 -38 0
551 -557 0
556 -557 0
-551 -556 557 0
491 -558 0
521 -558 0
-491 -521 558 0
-557 555 0
-558 555 0
557 558 -555 0
525 492 -560 0
-525 492 560 0
525 -492 560 0
-525 -492 -560 0
560 555 -39 0
-560 555 39 0
560 -555 39 0
-560 -555 -39 0
555 -561 0
560 -561 0
-555 -560 561 0
492 -562 0
525 -562 0
-492 -525 562 0
-561 559 0
-562 559 0
561 562 -559 0
